(set-logic QF_NRA)
; benchmark generated from python API
(set-info :status unknown)
(declare-fun v1y () Real)
(declare-fun oy () Real)
(declare-fun v1x () Real)
(declare-fun R2 () Real)
(declare-fun y1y () Real)
(declare-fun xy () Real)
(declare-fun y1x () Real)
(declare-fun xx () Real)
(declare-fun rho2 () Real)
(declare-fun y2y () Real)
(declare-fun y2x () Real)
(declare-fun y3y () Real)
(declare-fun y3x () Real)
(declare-fun y4y () Real)
(declare-fun y4x () Real)
(assert
 (let ((?x207 (* (- 1.0) v1x)))
 (let ((?x176 (* (- 1.0) R2)))
 (let ((?x98 (+ (+ (+ (+ (/ 1.0 4.0) (* oy oy)) (* v1x v1x)) (* v1y v1y)) ?x176)))
 (= (+ (+ ?x98 ?x207) (* (* (- 2.0) oy) v1y)) 0.0)))))
(assert
 (= (+ (+ (/ 1.0 4.0) (* oy oy)) (* (- 1.0) R2)) 0.0))
(assert
 (let ((?x43 (* (- 1.0) rho2)))
 (let ((?x469 (* y1y y1y)))
 (let ((?x85 (+ (+ (+ (+ (* xx xx) (* xy xy)) (* y1x y1x)) ?x469) ?x43)))
 (= (+ (+ ?x85 (* (* (- 2.0) xx) y1x)) (* (* (- 2.0) xy) y1y)) 0.0)))))
(assert
 (let ((?x43 (* (- 1.0) rho2)))
 (let ((?x415 (* y2y y2y)))
 (let ((?x246 (+ (+ (+ (+ (* xx xx) (* xy xy)) (* y2x y2x)) ?x415) ?x43)))
 (= (+ (+ ?x246 (* (* (- 2.0) xx) y2x)) (* (* (- 2.0) xy) y2y)) 0.0)))))
(assert
 (let ((?x43 (* (- 1.0) rho2)))
 (let ((?x15 (* y3y y3y)))
 (let ((?x483 (+ (+ (+ (+ (* xx xx) (* xy xy)) (* y3x y3x)) ?x15) ?x43)))
 (= (+ (+ ?x483 (* (* (- 2.0) xx) y3x)) (* (* (- 2.0) xy) y3y)) 0.0)))))
(assert
 (let ((?x43 (* (- 1.0) rho2)))
 (let ((?x273 (* y4y y4y)))
 (let ((?x460 (+ (+ (+ (+ (* xx xx) (* xy xy)) (* y4x y4x)) ?x273) ?x43)))
 (= (+ (+ ?x460 (* (* (- 2.0) xx) y4x)) (* (* (- 2.0) xy) y4y)) 0.0)))))
(assert
 (let ((?x478 (+ (+ (+ (+ (- (/ 1.0 4.0)) R2) xx) (* (- 1.0) (* oy oy))) (* (- 1.0) (* xx xx)))))
 (>= (+ (+ ?x478 (* (- 1.0) (* xy xy))) (* (* 2.0 oy) xy)) 0.0)))
(assert
 (let ((?x130 (+ (+ (+ (+ (- (/ 1.0 4.0)) R2) y1x) (* (- 1.0) (* oy oy))) (* (- 1.0) (* y1x y1x)))))
 (>= (+ (+ ?x130 (* (- 1.0) (* y1y y1y))) (* (* 2.0 oy) y1y)) 0.0)))
(assert
 (let ((?x459 (+ (+ (+ (+ (- (/ 1.0 4.0)) R2) y2x) (* (- 1.0) (* oy oy))) (* (- 1.0) (* y2x y2x)))))
 (>= (+ (+ ?x459 (* (- 1.0) (* y2y y2y))) (* (* 2.0 oy) y2y)) 0.0)))
(assert
 (let ((?x133 (+ (+ (+ (+ (- (/ 1.0 4.0)) R2) y3x) (* (- 1.0) (* oy oy))) (* (- 1.0) (* y3x y3x)))))
 (>= (+ (+ ?x133 (* (- 1.0) (* y3y y3y))) (* (* 2.0 oy) y3y)) 0.0)))
(assert
 (let ((?x200 (+ (+ (+ (+ (- (/ 1.0 4.0)) R2) y4x) (* (- 1.0) (* oy oy))) (* (- 1.0) (* y4x y4x)))))
 (>= (+ (+ ?x200 (* (- 1.0) (* y4y y4y))) (* (* 2.0 oy) y4y)) 0.0)))
(assert
 (>= (+ (+ (* v1x v1x) (* v1y v1y)) (* (- 1.0) v1x)) 0.0))
(assert
 (>= v1x 0.0))
(assert
 (>= (+ 1.0 (* (- 1.0) v1x)) 0.0))
(assert
 (> R2 0.0))
(assert
 (> rho2 0.0))
(assert
 (let ((?x70 (* (- 1.0) v1y)))
 (let ((?x449 (* ?x70 xy)))
 (> ?x449 0.0))))
(assert
 (let ((?x353 (+ (+ (* v1y v1y) (* (* (- 1.0) v1y) xy)) (* (* (- 1.0) xx) (* v1y v1y)))))
 (> (+ ?x353 (* (* v1x v1y) xy)) 0.0)))
(assert
 (> (+ (* xx (* v1y v1y)) (* (* (* (- 1.0) v1x) v1y) xy)) 0.0))
(assert
 (let ((?x70 (* (- 1.0) v1y)))
 (let ((?x328 (* ?x70 y1y)))
 (> ?x328 0.0))))
(assert
 (let ((?x475 (+ (+ (* v1y v1y) (* (* (- 1.0) v1y) y1y)) (* (* (- 1.0) y1x) (* v1y v1y)))))
 (> (+ ?x475 (* (* v1x v1y) y1y)) 0.0)))
(assert
 (> (+ (* y1x (* v1y v1y)) (* (* (* (- 1.0) v1x) v1y) y1y)) 0.0))
(assert
 (let ((?x70 (* (- 1.0) v1y)))
 (let ((?x193 (* ?x70 y2y)))
 (> ?x193 0.0))))
(assert
 (let ((?x485 (+ (+ (* v1y v1y) (* (* (- 1.0) v1y) y2y)) (* (* (- 1.0) y2x) (* v1y v1y)))))
 (> (+ ?x485 (* (* v1x v1y) y2y)) 0.0)))
(assert
 (> (+ (* y2x (* v1y v1y)) (* (* (* (- 1.0) v1x) v1y) y2y)) 0.0))
(assert
 (let ((?x70 (* (- 1.0) v1y)))
 (let ((?x252 (* ?x70 y3y)))
 (> ?x252 0.0))))
(assert
 (let ((?x438 (+ (+ (* v1y v1y) (* (* (- 1.0) v1y) y3y)) (* (* (- 1.0) y3x) (* v1y v1y)))))
 (> (+ ?x438 (* (* v1x v1y) y3y)) 0.0)))
(assert
 (> (+ (* y3x (* v1y v1y)) (* (* (* (- 1.0) v1x) v1y) y3y)) 0.0))
(assert
 (let ((?x70 (* (- 1.0) v1y)))
 (let ((?x298 (* ?x70 y4y)))
 (> ?x298 0.0))))
(assert
 (let ((?x417 (+ (+ (* v1y v1y) (* (* (- 1.0) v1y) y4y)) (* (* (- 1.0) y4x) (* v1y v1y)))))
 (> (+ ?x417 (* (* v1x v1y) y4y)) 0.0)))
(assert
 (> (+ (* y4x (* v1y v1y)) (* (* (* (- 1.0) v1x) v1y) y4y)) 0.0))
(assert
 (> (+ (* xy y1x) (* (* (- 1.0) xx) y1y)) 0.0))
(assert
 (> (+ (* y1x y2y) (* (* (- 1.0) y1y) y2x)) 0.0))
(assert
 (> (+ (* y1x y3y) (* (* (- 1.0) y1y) y3x)) 0.0))
(assert
 (> (+ (* y1x y4y) (* (* (- 1.0) y1y) y4x)) 0.0))
(assert
 (let ((?x439 (* (- 1.0) y1y)))
 (> ?x439 0.0)))
(assert
 (> (+ (* v1y y1x) (* (* (- 1.0) v1x) y1y)) 0.0))
(assert
 (> (+ (* xx y2y) (* (* (- 1.0) xy) y2x)) 0.0))
(assert
 (> (+ (* xx y3y) (* (* (- 1.0) xy) y3x)) 0.0))
(assert
 (> (+ (* xx y4y) (* (* (- 1.0) xy) y4x)) 0.0))
(assert
 (let ((?x142 (* (- 1.0) xy)))
 (> ?x142 0.0)))
(assert
 (> (+ (* v1y xx) (* (* (- 1.0) v1x) xy)) 0.0))
(assert
 (> (+ (* y2x y3y) (* (* (- 1.0) y2y) y3x)) 0.0))
(assert
 (> (+ (* y2x y4y) (* (* (- 1.0) y2y) y4x)) 0.0))
(assert
 (let ((?x433 (* (- 1.0) y2y)))
 (> ?x433 0.0)))
(assert
 (> (+ (* v1y y2x) (* (* (- 1.0) v1x) y2y)) 0.0))
(assert
 (> (+ (* y3x y4y) (* (* (- 1.0) y3y) y4x)) 0.0))
(assert
 (let ((?x289 (* (- 1.0) y3y)))
 (> ?x289 0.0)))
(assert
 (> (+ (* v1y y3x) (* (* (- 1.0) v1x) y3y)) 0.0))
(assert
 (let ((?x296 (* (- 1.0) y4y)))
 (> ?x296 0.0)))
(assert
 (> (+ (* v1y y4x) (* (* (- 1.0) v1x) y4y)) 0.0))
(assert
 (> v1y 0.0))
(assert
 (let ((?x142 (* (- 1.0) xy)))
 (let ((?x262 (* ?x142 y2x)))
 (let ((?x388 (* (- 1.0) xx)))
 (let ((?x149 (* ?x388 y1y)))
 (let ((?x414 (+ (+ (+ (+ (* xx y2y) (* xy y1x)) (* y1y y2x)) ?x149) ?x262)))
 (> (+ ?x414 (* (* (- 1.0) y1x) y2y)) 0.0)))))))
(assert
 (let ((?x45 (* (- 1.0) y1x)))
 (let ((?x269 (* ?x45 y3y)))
 (let ((?x142 (* (- 1.0) xy)))
 (let ((?x441 (* ?x142 y3x)))
 (let ((?x388 (* (- 1.0) xx)))
 (let ((?x149 (* ?x388 y1y)))
 (let ((?x49 (+ (+ (+ (+ (* xx y3y) (* xy y1x)) (* y1y y3x)) ?x149) ?x441)))
 (> (+ ?x49 ?x269) 0.0)))))))))
(assert
 (let ((?x45 (* (- 1.0) y1x)))
 (let ((?x181 (* ?x45 y4y)))
 (let ((?x142 (* (- 1.0) xy)))
 (let ((?x33 (* ?x142 y4x)))
 (let ((?x388 (* (- 1.0) xx)))
 (let ((?x149 (* ?x388 y1y)))
 (let ((?x178 (+ (+ (+ (+ (* xx y4y) (* xy y1x)) (* y1y y4x)) ?x149) ?x33)))
 (> (+ ?x178 ?x181) 0.0)))))))))
(assert
 (let ((?x388 (* (- 1.0) xx)))
 (let ((?x149 (* ?x388 y1y)))
 (> (+ (+ (+ y1y (* (- 1.0) xy)) (* xy y1x)) ?x149) 0.0))))
(assert
 (let ((?x388 (* (- 1.0) xx)))
 (let ((?x149 (* ?x388 y1y)))
 (let ((?x70 (* (- 1.0) v1y)))
 (let ((?x146 (* ?x70 y1x)))
 (let ((?x207 (* (- 1.0) v1x)))
 (let ((?x170 (* ?x207 xy)))
 (let ((?x56 (+ (+ (+ (+ (* v1x y1y) (* v1y xx)) (* xy y1x)) ?x170) ?x146)))
 (> (+ ?x56 ?x149) 0.0)))))))))
(assert
 (let ((?x433 (* (- 1.0) y2y)))
 (let ((?x435 (* ?x433 y3x)))
 (let ((?x439 (* (- 1.0) y1y)))
 (let ((?x272 (* ?x439 y2x)))
 (let ((?x45 (* (- 1.0) y1x)))
 (let ((?x269 (* ?x45 y3y)))
 (let ((?x167 (+ (+ (+ (+ (* y1x y2y) (* y1y y3x)) (* y2x y3y)) ?x269) ?x272)))
 (> (+ ?x167 ?x435) 0.0)))))))))
(assert
 (let ((?x433 (* (- 1.0) y2y)))
 (let ((?x364 (* ?x433 y4x)))
 (let ((?x439 (* (- 1.0) y1y)))
 (let ((?x272 (* ?x439 y2x)))
 (let ((?x45 (* (- 1.0) y1x)))
 (let ((?x181 (* ?x45 y4y)))
 (let ((?x132 (+ (+ (+ (+ (* y1x y2y) (* y1y y4x)) (* y2x y4y)) ?x181) ?x272)))
 (> (+ ?x132 ?x364) 0.0)))))))))
(assert
 (let ((?x439 (* (- 1.0) y1y)))
 (let ((?x272 (* ?x439 y2x)))
 (> (+ (+ (+ y1y (* (- 1.0) y2y)) (* y1x y2y)) ?x272) 0.0))))
(assert
 (let ((?x439 (* (- 1.0) y1y)))
 (let ((?x272 (* ?x439 y2x)))
 (let ((?x70 (* (- 1.0) v1y)))
 (let ((?x146 (* ?x70 y1x)))
 (let ((?x207 (* (- 1.0) v1x)))
 (let ((?x476 (* ?x207 y2y)))
 (let ((?x166 (+ (+ (+ (+ (* v1x y1y) (* v1y y2x)) (* y1x y2y)) ?x476) ?x146)))
 (> (+ ?x166 ?x272) 0.0)))))))))
(assert
 (let ((?x289 (* (- 1.0) y3y)))
 (let ((?x135 (* ?x289 y4x)))
 (let ((?x439 (* (- 1.0) y1y)))
 (let ((?x39 (* ?x439 y3x)))
 (let ((?x45 (* (- 1.0) y1x)))
 (let ((?x181 (* ?x45 y4y)))
 (let ((?x814 (+ (+ (+ (+ (* y1x y3y) (* y1y y4x)) (* y3x y4y)) ?x181) ?x39)))
 (> (+ ?x814 ?x135) 0.0)))))))))
(assert
 (let ((?x439 (* (- 1.0) y1y)))
 (let ((?x39 (* ?x439 y3x)))
 (> (+ (+ (+ y1y (* (- 1.0) y3y)) (* y1x y3y)) ?x39) 0.0))))
(assert
 (let ((?x439 (* (- 1.0) y1y)))
 (let ((?x39 (* ?x439 y3x)))
 (let ((?x70 (* (- 1.0) v1y)))
 (let ((?x146 (* ?x70 y1x)))
 (let ((?x207 (* (- 1.0) v1x)))
 (let ((?x334 (* ?x207 y3y)))
 (let ((?x88 (+ (+ (+ (+ (* v1x y1y) (* v1y y3x)) (* y1x y3y)) ?x334) ?x146)))
 (> (+ ?x88 ?x39) 0.0)))))))))
(assert
 (let ((?x439 (* (- 1.0) y1y)))
 (let ((?x329 (* ?x439 y4x)))
 (> (+ (+ (+ y1y (* (- 1.0) y4y)) (* y1x y4y)) ?x329) 0.0))))
(assert
 (let ((?x439 (* (- 1.0) y1y)))
 (let ((?x329 (* ?x439 y4x)))
 (let ((?x70 (* (- 1.0) v1y)))
 (let ((?x146 (* ?x70 y1x)))
 (let ((?x207 (* (- 1.0) v1x)))
 (let ((?x126 (* ?x207 y4y)))
 (let ((?x369 (+ (+ (+ (+ (* v1x y1y) (* v1y y4x)) (* y1x y4y)) ?x126) ?x146)))
 (> (+ ?x369 ?x329) 0.0)))))))))
(assert
 (let ((?x70 (* (- 1.0) v1y)))
 (let ((?x146 (* ?x70 y1x)))
 (> (+ (+ (+ v1y (* (- 1.0) y1y)) (* v1x y1y)) ?x146) 0.0))))
(assert
 (let ((?x433 (* (- 1.0) y2y)))
 (let ((?x435 (* ?x433 y3x)))
 (let ((?x142 (* (- 1.0) xy)))
 (let ((?x262 (* ?x142 y2x)))
 (let ((?x199 (+ (+ (+ (* xx y2y) (* xy y3x)) (* y2x y3y)) (* (* (- 1.0) xx) y3y))))
 (> (+ (+ ?x199 ?x262) ?x435) 0.0)))))))
(assert
 (let ((?x433 (* (- 1.0) y2y)))
 (let ((?x364 (* ?x433 y4x)))
 (let ((?x142 (* (- 1.0) xy)))
 (let ((?x262 (* ?x142 y2x)))
 (let ((?x388 (* (- 1.0) xx)))
 (let ((?x366 (* ?x388 y4y)))
 (let ((?x571 (+ (+ (+ (+ (* xx y2y) (* xy y4x)) (* y2x y4y)) ?x366) ?x262)))
 (> (+ ?x571 ?x364) 0.0)))))))))
(assert
 (let ((?x142 (* (- 1.0) xy)))
 (let ((?x262 (* ?x142 y2x)))
 (> (+ (+ (+ xy (* (- 1.0) y2y)) (* xx y2y)) ?x262) 0.0))))
(assert
 (let ((?x142 (* (- 1.0) xy)))
 (let ((?x262 (* ?x142 y2x)))
 (let ((?x70 (* (- 1.0) v1y)))
 (let ((?x225 (* ?x70 xx)))
 (let ((?x207 (* (- 1.0) v1x)))
 (let ((?x476 (* ?x207 y2y)))
 (let ((?x195 (+ (+ (+ (+ (* v1x xy) (* v1y y2x)) (* xx y2y)) ?x476) ?x225)))
 (> (+ ?x195 ?x262) 0.0)))))))))
(assert
 (let ((?x289 (* (- 1.0) y3y)))
 (let ((?x135 (* ?x289 y4x)))
 (let ((?x142 (* (- 1.0) xy)))
 (let ((?x441 (* ?x142 y3x)))
 (let ((?x388 (* (- 1.0) xx)))
 (let ((?x366 (* ?x388 y4y)))
 (let ((?x211 (+ (+ (+ (+ (* xx y3y) (* xy y4x)) (* y3x y4y)) ?x366) ?x441)))
 (> (+ ?x211 ?x135) 0.0)))))))))
(assert
 (let ((?x142 (* (- 1.0) xy)))
 (let ((?x441 (* ?x142 y3x)))
 (> (+ (+ (+ xy (* (- 1.0) y3y)) (* xx y3y)) ?x441) 0.0))))
(assert
 (let ((?x142 (* (- 1.0) xy)))
 (let ((?x441 (* ?x142 y3x)))
 (let ((?x70 (* (- 1.0) v1y)))
 (let ((?x225 (* ?x70 xx)))
 (let ((?x207 (* (- 1.0) v1x)))
 (let ((?x334 (* ?x207 y3y)))
 (let ((?x238 (+ (+ (+ (+ (* v1x xy) (* v1y y3x)) (* xx y3y)) ?x334) ?x225)))
 (> (+ ?x238 ?x441) 0.0)))))))))
(assert
 (let ((?x142 (* (- 1.0) xy)))
 (let ((?x33 (* ?x142 y4x)))
 (> (+ (+ (+ xy (* (- 1.0) y4y)) (* xx y4y)) ?x33) 0.0))))
(assert
 (let ((?x142 (* (- 1.0) xy)))
 (let ((?x33 (* ?x142 y4x)))
 (let ((?x70 (* (- 1.0) v1y)))
 (let ((?x225 (* ?x70 xx)))
 (let ((?x207 (* (- 1.0) v1x)))
 (let ((?x126 (* ?x207 y4y)))
 (let ((?x312 (+ (+ (+ (+ (* v1x xy) (* v1y y4x)) (* xx y4y)) ?x126) ?x225)))
 (> (+ ?x312 ?x33) 0.0)))))))))
(assert
 (let ((?x70 (* (- 1.0) v1y)))
 (let ((?x225 (* ?x70 xx)))
 (> (+ (+ (+ v1y (* (- 1.0) xy)) (* v1x xy)) ?x225) 0.0))))
(assert
 (let ((?x289 (* (- 1.0) y3y)))
 (let ((?x135 (* ?x289 y4x)))
 (let ((?x433 (* (- 1.0) y2y)))
 (let ((?x435 (* ?x433 y3x)))
 (let ((?x196 (+ (+ (+ (* y2x y3y) (* y2y y4x)) (* y3x y4y)) (* (* (- 1.0) y2x) y4y))))
 (> (+ (+ ?x196 ?x435) ?x135) 0.0)))))))
(assert
 (let ((?x433 (* (- 1.0) y2y)))
 (let ((?x435 (* ?x433 y3x)))
 (> (+ (+ (+ y2y (* (- 1.0) y3y)) (* y2x y3y)) ?x435) 0.0))))
(assert
 (let ((?x433 (* (- 1.0) y2y)))
 (let ((?x435 (* ?x433 y3x)))
 (let ((?x70 (* (- 1.0) v1y)))
 (let ((?x416 (* ?x70 y2x)))
 (let ((?x207 (* (- 1.0) v1x)))
 (let ((?x334 (* ?x207 y3y)))
 (let ((?x143 (+ (+ (+ (+ (* v1x y2y) (* v1y y3x)) (* y2x y3y)) ?x334) ?x416)))
 (> (+ ?x143 ?x435) 0.0)))))))))
(assert
 (let ((?x433 (* (- 1.0) y2y)))
 (let ((?x364 (* ?x433 y4x)))
 (> (+ (+ (+ y2y (* (- 1.0) y4y)) (* y2x y4y)) ?x364) 0.0))))
(assert
 (let ((?x433 (* (- 1.0) y2y)))
 (let ((?x364 (* ?x433 y4x)))
 (let ((?x70 (* (- 1.0) v1y)))
 (let ((?x416 (* ?x70 y2x)))
 (let ((?x207 (* (- 1.0) v1x)))
 (let ((?x126 (* ?x207 y4y)))
 (let ((?x87 (+ (+ (+ (+ (* v1x y2y) (* v1y y4x)) (* y2x y4y)) ?x126) ?x416)))
 (> (+ ?x87 ?x364) 0.0)))))))))
(assert
 (let ((?x70 (* (- 1.0) v1y)))
 (let ((?x416 (* ?x70 y2x)))
 (> (+ (+ (+ v1y (* (- 1.0) y2y)) (* v1x y2y)) ?x416) 0.0))))
(assert
 (let ((?x289 (* (- 1.0) y3y)))
 (let ((?x135 (* ?x289 y4x)))
 (> (+ (+ (+ y3y (* (- 1.0) y4y)) (* y3x y4y)) ?x135) 0.0))))
(assert
 (let ((?x289 (* (- 1.0) y3y)))
 (let ((?x135 (* ?x289 y4x)))
 (let ((?x70 (* (- 1.0) v1y)))
 (let ((?x394 (* ?x70 y3x)))
 (let ((?x207 (* (- 1.0) v1x)))
 (let ((?x126 (* ?x207 y4y)))
 (let ((?x287 (+ (+ (+ (+ (* v1x y3y) (* v1y y4x)) (* y3x y4y)) ?x126) ?x394)))
 (> (+ ?x287 ?x135) 0.0)))))))))
(assert
 (let ((?x70 (* (- 1.0) v1y)))
 (let ((?x394 (* ?x70 y3x)))
 (> (+ (+ (+ v1y (* (- 1.0) y3y)) (* v1x y3y)) ?x394) 0.0))))
(assert
 (let ((?x387 (+ (+ (+ v1y (* (- 1.0) y4y)) (* v1x y4y)) (* (* (- 1.0) v1y) y4x))))
(> ?x387 0.0)))
(check-sat)
